1416
2
58, 80, 93, 49, 35, 63, 19, 13, 34, 41, 57, 8, 6, 51, 62, 91, 74, 63, 76, 56, 22, 86, 70, 16, 2, 29, 84, 13, 37, 90, 49, 80, 32, 44, 64, 19
67, 86, 62, 77, 42, 25, 50, 1, 22, 33, 2, 9, 20, 34, 17, 17, 64, 99, 82, 83, 92, 45, 25, 48, 91, 85, 14, 2, 99, 78, 32, 4, 73, 39, 81, 68
1, 1, 2, 2, 2, 1, 1, 1, 1, 1, 2, 1, 2, 2, 2, 2, 2, 2, 2, 1, 2, 1, 2, 2, 1, 2, 1, 1, 1, 1, 2, 2, 1, 2, 2, 1